p tw 231 260
1 2
2 113
3 14
4 5
4 224
5 6
6 7
6 94
7 8
8 9
8 89
9 10
10 11
10 26
11 12
12 13
12 82
13 15
14 25
15 16
15 86
16 17
17 18
17 75
18 19
19 20
19 78
20 21
21 22
21 31
22 23
23 24
23 99
24 103
25 36
26 27
27 28
28 29
29 30
30 224
31 32
32 33
33 34
34 35
35 37
36 47
37 38
38 39
38 44
39 40
40 41
40 49
41 42
42 43
42 62
43 224
44 45
45 46
46 48
47 58
48 224
49 50
50 51
50 53
51 52
52 224
53 54
54 55
55 56
56 57
56 224
57 59
58 69
59 60
60 61
61 224
62 63
63 64
63 66
64 65
65 224
66 67
67 68
68 70
69 80
70 71
70 224
71 72
72 73
73 74
74 224
75 76
76 77
77 224
78 79
79 81
80 91
81 224
82 83
83 84
84 85
85 224
86 87
87 88
88 224
89 90
90 92
91 102
92 93
93 224
94 95
95 96
96 97
96 224
97 98
98 224
99 100
100 101
101 224
102 114
102 204
103 104
104 105
105 106
106 107
106 224
107 108
108 109
108 224
109 110
110 111
111 112
112 115
113 155
114 125
115 116
116 224
117 118
118 119
119 120
120 121
121 122
122 123
123 124
124 126
125 136
126 127
127 128
128 129
128 133
129 130
130 131
131 132
132 133
133 134
134 135
135 137
136 147
137 138
137 119
138 139
139 140
140 141
141 142
142 143
143 144
144 145
145 146
146 148
147 149
149 150
150 151
150 161
151 152
152 153
153 154
154 156
155 166
156 157
157 158
158 159
159 160
160 161
161 162
162 163
163 164
164 165
165 167
166 177
167 168
167 201
168 169
169 170
169 175
170 171
171 172
171 182
172 173
173 174
173 179
174 185
175 176
176 178
177 188
178 197
179 180
180 181
181 197
182 183
183 184
184 197
185 186
186 187
187 189
188 199
189 190
190 191
191 192
192 193
193 194
194 195
195 196
196 197
197 198
198 200
199 210
200 164
201 202
202 203
203 80
204 205
205 206
206 207
207 208
208 209
209 211
210 221
211 212
212 213
213 214
214 215
214 207
215 216
216 217
217 218
218 219
219 220
220 222
221 3
222 223
223 224
224 225
225 226
226 227
227 228
228 229
229 230
230 231
230 117
231 4
